# Solution for model GasLib-40
# Objective value = 1.0731599886503245e+01
loadshed[innode_1] 0
loadshed[innode_2] 0
loadshed[innode_3] 0
loadshed[innode_4] 0
loadshed[innode_5] 0
loadshed[innode_6] 0
loadshed[innode_7] 0
loadshed[innode_8] 0
loadshed[source_1] -3.6422973475559273e-01
loadshed[source_2] 5.9355529197680723e-02
loadshed[source_3] 3.7275693710420188e-01
loadshed[sink_1] 0
loadshed[sink_2] 0
loadshed[sink_3] 0
loadshed[sink_4] 0
loadshed[sink_5] 0
loadshed[sink_6] 0
loadshed[sink_7] 0
loadshed[sink_8] 0
loadshed[sink_9] 0
loadshed[sink_10] 0
loadshed[sink_11] 0
loadshed[sink_12] 6.5619973828300093e-01
loadshed[sink_13] 0
loadshed[sink_14] 0
loadshed[sink_15] 0
loadshed[sink_16] 0
loadshed[sink_17] 0
loadshed[sink_18] 0
loadshed[sink_19] 0
loadshed[sink_20] 0
loadshed[sink_21] 0
loadshed[sink_22] 0
loadshed[sink_23] 0
loadshed[sink_24] 0
loadshed[sink_25] 0
loadshed[sink_26] 0
loadshed[sink_27] 0
loadshed[sink_28] 0
loadshed[sink_29] 0
flow[source_1,sink_3] 2.1567145772021576e+02
flow[innode_1,sink_16] 1.6354166666666970e+01
flow[innode_6,sink_13] 1.5318136619299594e+01
flow[sink_13,sink_14] -1.0360300473670740e+00
flow[sink_14,sink_10] -1.7390196714033742e+01
flow[sink_25,sink_26] 1.7141756618626880e+02
flow[sink_26,sink_9] 1.2167752950348415e+02
flow[sink_9,sink_18] 1.0532336283681748e+02
flow[sink_26,sink_4] 3.3385870016117991e+01
flow[sink_4,sink_20] -1.7169832688867547e+01
flow[sink_18,sink_6] 8.8969196170150809e+01
flow[sink_25,innode_8] -1.8296312438687940e+02
flow[sink_6,sink_7] 3.9906696170150553e+01
flow[sink_6,sink_22] 3.2708333333333641e+01
flow[sink_7,sink_24] 3.8330900113496760e+01
flow[sink_22,sink_1] 1.6354166666666970e+01
flow[sink_24,sink_21] 2.1976733446830092e+01
flow[sink_21,sink_12] 5.6225667801634236e+00
flow[sink_7,sink_5] -1.4778370610012743e+01
flow[sink_5,sink_17] -3.1132537276679159e+01
flow[sink_17,sink_4] -3.4201536038318871e+01
flow[sink_17,sink_8] -1.3285167905027009e+01
flow[sink_3,sink_23] 16.3541666666697
flow[sink_8,sink_20] -2.9639334571693677e+01
flow[sink_25,sink_20] 6.3163333927227711e+01
flow[sink_25,sink_15] -8.3290079012583945e+01
flow[sink_15,sink_29] -1.1599841234593487e+02
flow[sink_29,sink_28] 1.6354166666667879e+01
flow[sink_29,sink_2] 0
flow[sink_2,sink_15] -1.6354166666684250e+01
flow[sink_29,innode_7] -1.4870674567926943e+02
flow[innode_4,sink_19] 8.2806863380701159e+01
flow[sink_19,innode_3] 6.6452696714034118e+01
flow[innode_4,innode_5] 1.6354166666679703e+01
flow[sink_27,innode_5] -1.6354166666679703e+01
flow[sink_27,sink_19] 0
flow[sink_10,sink_11] 3.2708333333333641e+01
flow[sink_10,innode_2] 0
flow[sink_10,innode_3] -6.6452696714034118e+01
flow[innode_6,sink_25] -1.5318136619299594e+01
flow[sink_11,innode_1] 1.6354166666666970e+01
flow[sink_19,innode_2] 0
flow[source_3,innode_4] 9.9161030047380862e+01
flow[source_2,innode_7] 1.4870674567926943e+02
flow[sink_3,innode_8] 1.8296312438687940e+02
pressure[innode_1] 7.3821733889289987e+01
pressure[innode_2] 7.7658532971357346e+01
pressure[innode_3] 77.5113809994357
pressure[innode_4] 81.01325
pressure[innode_5] 8.1002000741808786e+01
pressure[innode_6] 7.3233495573958635e+01
pressure[innode_7] 81.01325
pressure[innode_8] 8.0292342706324462e+01
pressure[source_1] 81.01325
pressure[source_2] 81.01325
pressure[source_3] 81.01325
pressure[sink_1] 4.5590209644287008e+01
pressure[sink_2] 7.3584140867074808e+01
pressure[sink_3] 8.0292342706324462e+01
pressure[sink_4] 5.6915891135075540e+01
pressure[sink_5] 5.3289672209100296e+01
pressure[sink_6] 4.7691287254674378e+01
pressure[sink_7] 4.7143463439424870e+01
pressure[sink_8] 5.6110105102844194e+01
pressure[sink_9] 5.3877942873571264e+01
pressure[sink_10] 7.3973435196893533e+01
pressure[sink_11] 7.3821733889289987e+01
pressure[sink_12] 1.0132499999999998e+00
pressure[sink_13] 7.3149049246674878e+01
pressure[sink_14] 7.3150903310694886e+01
pressure[sink_15] 7.3637533616841253e+01
pressure[sink_16] 7.2800084054472308e+01
pressure[sink_17] 5.5608821203770020e+01
pressure[sink_18] 5.0067029688526176e+01
pressure[sink_19] 7.7658532971357346e+01
pressure[sink_20] 5.8175549896495667e+01
pressure[sink_21] 3.0140669846606771e+00
pressure[sink_22] 4.6653978786642014e+01
pressure[sink_23] 8.0127624694664675e+01
pressure[sink_24] 3.2574388887637520e+00
pressure[sink_25] 7.3233495573958635e+01
pressure[sink_26] 6.1160657055413722e+01
pressure[sink_27] 8.0866291377726043e+01
pressure[sink_28] 7.6740644837469262e+01
pressure[sink_29] 7.7035927111086437e+01
interdiction[source_1,sink_3] 0
interdiction[innode_1,sink_16] 0
interdiction[innode_6,sink_13] 0
interdiction[sink_13,sink_14] 0
interdiction[sink_14,sink_10] 0
interdiction[sink_25,sink_26] 0
interdiction[sink_26,sink_9] 0
interdiction[sink_9,sink_18] 0
interdiction[sink_26,sink_4] 0
interdiction[sink_4,sink_20] 0
interdiction[sink_18,sink_6] 0
interdiction[sink_25,innode_8] 0
interdiction[sink_6,sink_7] 0
interdiction[sink_6,sink_22] 0
interdiction[sink_7,sink_24] 0
interdiction[sink_22,sink_1] 0
interdiction[sink_24,sink_21] 0
interdiction[sink_21,sink_12] 0
interdiction[sink_7,sink_5] 0
interdiction[sink_5,sink_17] 0
interdiction[sink_17,sink_4] 0
interdiction[sink_17,sink_8] 0
interdiction[sink_3,sink_23] 0
interdiction[sink_8,sink_20] 0
interdiction[sink_25,sink_20] 0
interdiction[sink_25,sink_15] 0
interdiction[sink_15,sink_29] 0
interdiction[sink_29,sink_28] 0
interdiction[sink_29,sink_2] 1
interdiction[sink_2,sink_15] 0
interdiction[sink_29,innode_7] 0
interdiction[innode_4,sink_19] 0
interdiction[sink_19,innode_3] 0
interdiction[innode_4,innode_5] 0
interdiction[sink_27,innode_5] 0
interdiction[sink_27,sink_19] 1
interdiction[sink_10,sink_11] 0
interdiction[sink_10,innode_2] 1
interdiction[sink_10,innode_3] 0
interdiction[innode_6,sink_25] 0
interdiction[sink_11,innode_1] 0
interdiction[sink_19,innode_2] 0
interdiction[source_3,innode_4] 0
interdiction[source_2,innode_7] 0
interdiction[sink_3,innode_8] 0
WCcheckFlow[source_1,sink_3] 39
WCcheckFlow[innode_1,sink_16] 1
WCcheckFlow[innode_6,sink_13] 13
WCcheckFlow[sink_13,sink_14] 12
WCcheckFlow[sink_14,sink_10] 11
WCcheckFlow[sink_25,sink_26] 15
WCcheckFlow[sink_26,sink_9] 12
WCcheckFlow[sink_9,sink_18] 11
WCcheckFlow[sink_26,sink_4] 2
WCcheckFlow[sink_4,sink_20] 1
WCcheckFlow[sink_18,sink_6] 10
WCcheckFlow[sink_25,innode_8] -36
WCcheckFlow[sink_6,sink_7] 7
WCcheckFlow[sink_6,sink_22] 2
WCcheckFlow[sink_7,sink_24] 3
WCcheckFlow[sink_22,sink_1] 1
WCcheckFlow[sink_24,sink_21] 2
WCcheckFlow[sink_21,sink_12] 1
WCcheckFlow[sink_7,sink_5] 3
WCcheckFlow[sink_5,sink_17] 2
WCcheckFlow[sink_17,sink_4] 0
WCcheckFlow[sink_17,sink_8] 1
WCcheckFlow[sink_3,sink_23] 1
WCcheckFlow[sink_8,sink_20] 0
WCcheckFlow[sink_25,sink_20] 0
WCcheckFlow[sink_25,sink_15] 6
WCcheckFlow[sink_15,sink_29] 4
WCcheckFlow[sink_29,sink_28] 1
WCcheckFlow[sink_29,sink_2] 0
WCcheckFlow[sink_2,sink_15] -1
WCcheckFlow[sink_29,innode_7] 2
WCcheckFlow[innode_4,sink_19] -4
WCcheckFlow[sink_19,innode_3] -6
WCcheckFlow[innode_4,innode_5] 2
WCcheckFlow[sink_27,innode_5] -1
WCcheckFlow[sink_27,sink_19] 0
WCcheckFlow[sink_10,sink_11] 3
WCcheckFlow[sink_10,innode_2] 0
WCcheckFlow[sink_10,innode_3] 7
WCcheckFlow[innode_6,sink_25] -14
WCcheckFlow[sink_11,innode_1] 2
WCcheckFlow[sink_19,innode_2] 1
WCcheckFlow[source_3,innode_4] -1
WCcheckFlow[source_2,innode_7] -1
WCcheckFlow[sink_3,innode_8] 37
